instances/knapsack/discrete/knapsack_80_1.kp
5053
80
441

43 4.3 88
52 5.2 44
10 1.0 74
79 7.9 78
64 6.4 11
57 5.7 19
53 5.3 87
91 9.1 41
9 0.9 64
10 1.0 4
99 9.9 5
47 4.7 41
76 7.6 21
68 6.8 88
44 4.4 61
40 4.0 78
77 7.7 80
88 8.8 84
41 4.1 24
46 4.6 35
89 8.9 7
47 4.7 85
96 9.6 2
78 7.8 46
72 7.2 59
60 6.0 44
6 0.6 54
11 1.1 25
89 8.9 100
11 1.1 82
61 6.1 83
51 5.1 66
59 5.9 14
5 0.5 21
80 8.0 57
29 2.9 15
24 2.4 79
100 10.0 77
100 10.0 8
42 4.2 85
99 9.9 30
69 6.9 47
6 0.6 79
49 4.9 81
63 6.3 32
34 3.4 73
65 6.5 78
49 4.9 74
67 6.7 38
48 4.8 19
74 7.4 21
80 8.0 48
93 9.3 89
100 10.0 15
24 2.4 46
71 7.1 16
77 7.7 72
50 5.0 82
60 6.0 18
74 7.4 69
24 2.4 34
86 8.6 44
87 8.7 99
98 9.8 95
47 4.7 40
72 7.2 39
32 3.2 43
82 8.2 51
92 9.2 62
37 3.7 95
53 5.3 55
1 0.1 65
46 4.6 3
95 9.5 23
27 2.7 16
44 4.4 8
58 5.8 4
91 9.1 95
8 0.8 66
98 9.8 85

37497
367

[1.22 2.06 1.94 2.05 3.18 3.5 3.77 1.03 0.58 4.25 3.73 3.52 0.53 4.38 0.42 4.15 2.11 0.89 0.25 2.2 3.37 2.78 4.3 0.32 1.86 1.79 3.72 3.17 0.59 0.15 2.05 1.3 0.38 1.11 4.33 1.65 0.67 0.54 0.77 3.34 1.14 3.34 0.09 2.38 3.67 3.07 1.01 0.75 3.96 1.4 2.58 2.21 1.17 0.64 3.92 0.91 1.84 2.08 3.21 3.78 1.44 1.71 3.47 2.46 1.27 4.0 2.69 3.4 2.83 3.05 3.46 2.17 4.06 0.51 2.81 1.88 2.38 2.78 1.04 2.46]

[57 10 96 21 50 99 91 37 67 88 21 33 10 66 18 2 3 38 3 56 27 41 46 44 14 14 24 9 35 37 83 9 29 35 42 47 50 10 10 36 29 75 48 87 57 44 71 79 29 30 40 74 43 82 26 97 23 52 46 96 2 36 45 88 93 86 50 56 58 39 99 63 84 57 97 14 32 49 78 96]
