instances/knapsack/discrete_knapsack_uncertainty/knapsack_80_1.lp
\ Model knapsack_80_1
\ LP format - for model browsing. Use MPS format to capture full model detail.
\ Signature: 0xf86d0bbf74a39a5e
Minimize
  - 80 x[0] - 61 x[1] - 38 x[2] - 22 x[3] - 28 x[4] - 7 x[5] - 68 x[6]
   - 78 x[7] - 33 x[8] - 85 x[9] - x[10] - 57 x[11] - 61 x[12] - 64 x[13]
   - 89 x[14] - 46 x[15] - 4 x[16] - 48 x[17] - 65 x[18] - 88 x[19]
   - 92 x[20] - 85 x[21] - 66 x[22] - 6 x[23] - 43 x[24] - 77 x[25]
   - 74 x[26] - 58 x[27] - 32 x[28] - 47 x[29] - 27 x[30] - 50 x[31]
   - 70 x[32] - 69 x[33] - 98 x[34] - 51 x[35] - 47 x[36] - 13 x[37]
   - 49 x[38] - 58 x[39] - 62 x[40] - 16 x[41] - 36 x[42] - 33 x[43]
   - 37 x[44] - 5 x[45] - 39 x[46] - 79 x[47] - 75 x[48] - 4 x[49]
   - 73 x[50] - 73 x[51] - 85 x[52] - 23 x[53] - 34 x[54] - 88 x[55]
   - 73 x[56] - 62 x[57] - 46 x[58] - 93 x[59] - 34 x[60] - 84 x[61]
   - 36 x[62] - 52 x[63] - 61 x[64] - 79 x[65] - 11 x[66] - 96 x[67]
   - 79 x[68] - 64 x[69] - 27 x[70] - 37 x[71] - 67 x[72] - 44 x[73]
   - 37 x[74] - 64 x[75] - 12 x[76] - 91 x[77] - 74 x[78] - 26 x[79]
Subject To
 primal_upper: 34 x[0] + 14 x[1] + 60 x[2] + 45 x[3] + 50 x[4] + 4 x[5]
   + 7 x[6] + 42 x[7] + 47 x[8] + 40 x[9] + 86 x[10] + 61 x[11] + 66 x[12]
   + 66 x[13] + 75 x[14] + 15 x[15] + 7 x[16] + 98 x[17] + 67 x[18]
   + 72 x[19] + 35 x[20] + 10 x[21] + 46 x[22] + x[23] + 55 x[24]
   + 14 x[25] + 32 x[26] + 42 x[27] + 12 x[28] + 45 x[29] + 96 x[30]
   + 82 x[31] + 62 x[32] + 99 x[33] + 10 x[34] + 19 x[35] + 46 x[36]
   + 27 x[37] + 34 x[38] + 57 x[39] + 65 x[40] + 88 x[41] + 80 x[42]
   + 24 x[43] + 49 x[44] + 57 x[45] + 44 x[46] + 92 x[47] + 53 x[48]
   + 58 x[49] + 33 x[50] + 82 x[51] + 47 x[52] + 74 x[53] + 51 x[54]
   + 18 x[55] + 35 x[56] + 49 x[57] + 22 x[58] + 68 x[59] + 15 x[60]
   + 61 x[61] + 6 x[62] + 33 x[63] + 66 x[64] + 22 x[65] + 15 x[66]
   + 61 x[67] + 22 x[68] + 44 x[69] + 76 x[70] + 48 x[71] + 64 x[72]
   + 77 x[73] + 70 x[74] + 23 x[75] + 69 x[76] + 57 x[77] + 23 x[78]
   + 33 x[79] + 3.4 r[0] + 1.4 r[1] + 6 r[2] + 4.5 r[3] + 5 r[4] + 0.4 r[5]
   + 0.7 r[6] + 4.2 r[7] + 4.7 r[8] + 4 r[9] + 8.6 r[10] + 6.1 r[11]
   + 6.6 r[12] + 6.6 r[13] + 7.5 r[14] + 1.5 r[15] + 0.7 r[16] + 9.8 r[17]
   + 6.7 r[18] + 7.2 r[19] + 3.5 r[20] + r[21] + 4.6 r[22] + 0.1 r[23]
   + 5.5 r[24] + 1.4 r[25] + 3.2 r[26] + 4.2 r[27] + 1.2 r[28] + 4.5 r[29]
   + 9.6 r[30] + 8.2 r[31] + 6.2 r[32] + 9.9 r[33] + r[34] + 1.9 r[35]
   + 4.6 r[36] + 2.7 r[37] + 3.4 r[38] + 5.7 r[39] + 6.5 r[40] + 8.8 r[41]
   + 8 r[42] + 2.4 r[43] + 4.9 r[44] + 5.7 r[45] + 4.4 r[46] + 9.2 r[47]
   + 5.3 r[48] + 5.8 r[49] + 3.3 r[50] + 8.2 r[51] + 4.7 r[52] + 7.4 r[53]
   + 5.1 r[54] + 1.8 r[55] + 3.5 r[56] + 4.9 r[57] + 2.2 r[58] + 6.8 r[59]
   + 1.5 r[60] + 6.1 r[61] + 0.6 r[62] + 3.3 r[63] + 6.6 r[64] + 2.2 r[65]
   + 1.5 r[66] + 6.1 r[67] + 2.2 r[68] + 4.4 r[69] + 7.6 r[70] + 4.8 r[71]
   + 6.4 r[72] + 7.7 r[73] + 7 r[74] + 2.3 r[75] + 6.9 r[76] + 5.7 r[77]
   + 2.3 r[78] + 3.3 r[79] <= 357
 primal_lower: 0.7847280810672554 x[0] + 2.559473338201522 x[1]
   + 3.312276929301164 x[2] + 0.3984797307498166 x[3]
   + 3.021038428615431 x[4] + 1.741827720256485 x[5]
   + 2.684538931550066 x[6] + 3.200767306991991 x[7]
   + 0.4578167175412788 x[8] + 4.696958844678804 x[9]
   + 1.802710087473779 x[10] + 0.4082038588240189 x[11]
   + 2.859652851033315 x[12] + 3.265747890100463 x[13]
   + 2.139980266678036 x[14] + 4.099111968702243 x[15]
   + 3.510018008586361 x[16] + 0.396314546888847 x[17]
   + 4.793827982065034 x[18] + 3.518607325072141 x[19]
   + 4.517254705180392 x[20] + 2.936675311407497 x[21]
   + 4.694212781200566 x[22] + 0.8065442061988612 x[23]
   + 1.248467432446697 x[24] + 1.21110851854635 x[25]
   + 0.9762654501191379 x[26] + 2.776653662229514 x[27]
   + 2.097365599166867 x[28] + 2.453446879077286 x[29]
   + 0.7568888971269352 x[30] + 0.3081844098240679 x[31]
   + 0.5028486246875067 x[32] + 1.947269336776197 x[33]
   + 0.6936659710073465 x[34] + 1.486462237818488 x[35]
   + 1.677165536098665 x[36] + 1.030832247163703 x[37]
   + 3.461160362899914 x[38] + 0.5642490193033 x[39]
   + 1.356849656291889 x[40] + 0.0874486627452382 x[41]
   + 0.4729117686185352 x[42] + 2.721691323921481 x[43]
   + 2.753657737281754 x[44] + 1.064712177578176 x[45]
   + 1.088605053531813 x[46] + 0.513347257968681 x[47]
   + 1.244911841168228 x[48] + 0.7031197551360561 x[49]
   + 4.746667711909129 x[50] + 4.597474320016888 x[51]
   + 4.800384864848142 x[52] + 4.034153657344822 x[53]
   + 0.2204081613836279 x[54] + 0.5563083041240042 x[55]
   + 0.1574425784280693 x[56] + 4.133569817047258 x[57]
   + 2.597862739297723 x[58] + 2.94387899139952 x[59]
   + 0.1053807011444246 x[60] + 4.321167375501574 x[61]
   + 2.856389110856081 x[62] + 0.2842858594052844 x[63]
   + 1.542356218454606 x[64] + 3.693491797223111 x[65]
   + 3.737166334532063 x[66] + 0.8061699404738046 x[67]
   + 1.423142255983705 x[68] + 3.592353998930704 x[69]
   + 3.660759034094612 x[70] + 1.163897869803529 x[71]
   + 0.0972792162440492 x[72] + 2.160869178011765 x[73]
   + 4.77837492031252 x[74] + 0.6263666261896493 x[75]
   + 0.872079687584827 x[76] + 2.150778424861754 x[77]
   + 3.425288130876968 x[78] + 3.138917482956366 x[79] + 96 u[0] + 81 u[1]
   + 63 u[2] + 72 u[3] + 21 u[4] + 46 u[5] + 74 u[6] + 12 u[7] + 58 u[8]
   + 15 u[9] + 36 u[10] + 88 u[11] + 93 u[12] + 69 u[13] + 45 u[14]
   + 65 u[15] + 38 u[16] + 29 u[17] + 66 u[18] + 67 u[19] + 38 u[20]
   + 80 u[21] + 33 u[22] + 51 u[23] + 85 u[24] + 61 u[25] + 95 u[26]
   + 96 u[27] + 6 u[28] + 12 u[29] + 14 u[30] + 32 u[31] + 56 u[32]
   + 50 u[33] + u[34] + 58 u[35] + 37 u[36] + 97 u[37] + 41 u[38]
   + 31 u[39] + 12 u[40] + 2 u[41] + 19 u[42] + 82 u[43] + 92 u[44]
   + 11 u[45] + 98 u[46] + 14 u[47] + 44 u[48] + 81 u[49] + 71 u[50]
   + 77 u[51] + 42 u[52] + 81 u[53] + 89 u[54] + 44 u[55] + 42 u[56]
   + 43 u[57] + 25 u[58] + 7 u[59] + 49 u[60] + 43 u[61] + 92 u[62]
   + 91 u[63] + 20 u[64] + 73 u[65] + 53 u[66] + 51 u[67] + 61 u[68]
   + 30 u[69] + 34 u[70] + 38 u[71] + 23 u[72] + 56 u[73] + 76 u[74]
   + 5 u[75] + 31 u[76] + 76 u[77] + 97 u[78] + 3 u[79] <= 51991
 mccormick1[0]: - u[0] + r[0] <= 0
 mccormick1[1]: - u[1] + r[1] <= 0
 mccormick1[2]: - u[2] + r[2] <= 0
 mccormick1[3]: - u[3] + r[3] <= 0
 mccormick1[4]: - u[4] + r[4] <= 0
 mccormick1[5]: - u[5] + r[5] <= 0
 mccormick1[6]: - u[6] + r[6] <= 0
 mccormick1[7]: - u[7] + r[7] <= 0
 mccormick1[8]: - u[8] + r[8] <= 0
 mccormick1[9]: - u[9] + r[9] <= 0
 mccormick1[10]: - u[10] + r[10] <= 0
 mccormick1[11]: - u[11] + r[11] <= 0
 mccormick1[12]: - u[12] + r[12] <= 0
 mccormick1[13]: - u[13] + r[13] <= 0
 mccormick1[14]: - u[14] + r[14] <= 0
 mccormick1[15]: - u[15] + r[15] <= 0
 mccormick1[16]: - u[16] + r[16] <= 0
 mccormick1[17]: - u[17] + r[17] <= 0
 mccormick1[18]: - u[18] + r[18] <= 0
 mccormick1[19]: - u[19] + r[19] <= 0
 mccormick1[20]: - u[20] + r[20] <= 0
 mccormick1[21]: - u[21] + r[21] <= 0
 mccormick1[22]: - u[22] + r[22] <= 0
 mccormick1[23]: - u[23] + r[23] <= 0
 mccormick1[24]: - u[24] + r[24] <= 0
 mccormick1[25]: - u[25] + r[25] <= 0
 mccormick1[26]: - u[26] + r[26] <= 0
 mccormick1[27]: - u[27] + r[27] <= 0
 mccormick1[28]: - u[28] + r[28] <= 0
 mccormick1[29]: - u[29] + r[29] <= 0
 mccormick1[30]: - u[30] + r[30] <= 0
 mccormick1[31]: - u[31] + r[31] <= 0
 mccormick1[32]: - u[32] + r[32] <= 0
 mccormick1[33]: - u[33] + r[33] <= 0
 mccormick1[34]: - u[34] + r[34] <= 0
 mccormick1[35]: - u[35] + r[35] <= 0
 mccormick1[36]: - u[36] + r[36] <= 0
 mccormick1[37]: - u[37] + r[37] <= 0
 mccormick1[38]: - u[38] + r[38] <= 0
 mccormick1[39]: - u[39] + r[39] <= 0
 mccormick1[40]: - u[40] + r[40] <= 0
 mccormick1[41]: - u[41] + r[41] <= 0
 mccormick1[42]: - u[42] + r[42] <= 0
 mccormick1[43]: - u[43] + r[43] <= 0
 mccormick1[44]: - u[44] + r[44] <= 0
 mccormick1[45]: - u[45] + r[45] <= 0
 mccormick1[46]: - u[46] + r[46] <= 0
 mccormick1[47]: - u[47] + r[47] <= 0
 mccormick1[48]: - u[48] + r[48] <= 0
 mccormick1[49]: - u[49] + r[49] <= 0
 mccormick1[50]: - u[50] + r[50] <= 0
 mccormick1[51]: - u[51] + r[51] <= 0
 mccormick1[52]: - u[52] + r[52] <= 0
 mccormick1[53]: - u[53] + r[53] <= 0
 mccormick1[54]: - u[54] + r[54] <= 0
 mccormick1[55]: - u[55] + r[55] <= 0
 mccormick1[56]: - u[56] + r[56] <= 0
 mccormick1[57]: - u[57] + r[57] <= 0
 mccormick1[58]: - u[58] + r[58] <= 0
 mccormick1[59]: - u[59] + r[59] <= 0
 mccormick1[60]: - u[60] + r[60] <= 0
 mccormick1[61]: - u[61] + r[61] <= 0
 mccormick1[62]: - u[62] + r[62] <= 0
 mccormick1[63]: - u[63] + r[63] <= 0
 mccormick1[64]: - u[64] + r[64] <= 0
 mccormick1[65]: - u[65] + r[65] <= 0
 mccormick1[66]: - u[66] + r[66] <= 0
 mccormick1[67]: - u[67] + r[67] <= 0
 mccormick1[68]: - u[68] + r[68] <= 0
 mccormick1[69]: - u[69] + r[69] <= 0
 mccormick1[70]: - u[70] + r[70] <= 0
 mccormick1[71]: - u[71] + r[71] <= 0
 mccormick1[72]: - u[72] + r[72] <= 0
 mccormick1[73]: - u[73] + r[73] <= 0
 mccormick1[74]: - u[74] + r[74] <= 0
 mccormick1[75]: - u[75] + r[75] <= 0
 mccormick1[76]: - u[76] + r[76] <= 0
 mccormick1[77]: - u[77] + r[77] <= 0
 mccormick1[78]: - u[78] + r[78] <= 0
 mccormick1[79]: - u[79] + r[79] <= 0
 mccormick2[0]: - x[0] + r[0] <= 0
 mccormick2[1]: - x[1] + r[1] <= 0
 mccormick2[2]: - x[2] + r[2] <= 0
 mccormick2[3]: - x[3] + r[3] <= 0
 mccormick2[4]: - x[4] + r[4] <= 0
 mccormick2[5]: - x[5] + r[5] <= 0
 mccormick2[6]: - x[6] + r[6] <= 0
 mccormick2[7]: - x[7] + r[7] <= 0
 mccormick2[8]: - x[8] + r[8] <= 0
 mccormick2[9]: - x[9] + r[9] <= 0
 mccormick2[10]: - x[10] + r[10] <= 0
 mccormick2[11]: - x[11] + r[11] <= 0
 mccormick2[12]: - x[12] + r[12] <= 0
 mccormick2[13]: - x[13] + r[13] <= 0
 mccormick2[14]: - x[14] + r[14] <= 0
 mccormick2[15]: - x[15] + r[15] <= 0
 mccormick2[16]: - x[16] + r[16] <= 0
 mccormick2[17]: - x[17] + r[17] <= 0
 mccormick2[18]: - x[18] + r[18] <= 0
 mccormick2[19]: - x[19] + r[19] <= 0
 mccormick2[20]: - x[20] + r[20] <= 0
 mccormick2[21]: - x[21] + r[21] <= 0
 mccormick2[22]: - x[22] + r[22] <= 0
 mccormick2[23]: - x[23] + r[23] <= 0
 mccormick2[24]: - x[24] + r[24] <= 0
 mccormick2[25]: - x[25] + r[25] <= 0
 mccormick2[26]: - x[26] + r[26] <= 0
 mccormick2[27]: - x[27] + r[27] <= 0
 mccormick2[28]: - x[28] + r[28] <= 0
 mccormick2[29]: - x[29] + r[29] <= 0
 mccormick2[30]: - x[30] + r[30] <= 0
 mccormick2[31]: - x[31] + r[31] <= 0
 mccormick2[32]: - x[32] + r[32] <= 0
 mccormick2[33]: - x[33] + r[33] <= 0
 mccormick2[34]: - x[34] + r[34] <= 0
 mccormick2[35]: - x[35] + r[35] <= 0
 mccormick2[36]: - x[36] + r[36] <= 0
 mccormick2[37]: - x[37] + r[37] <= 0
 mccormick2[38]: - x[38] + r[38] <= 0
 mccormick2[39]: - x[39] + r[39] <= 0
 mccormick2[40]: - x[40] + r[40] <= 0
 mccormick2[41]: - x[41] + r[41] <= 0
 mccormick2[42]: - x[42] + r[42] <= 0
 mccormick2[43]: - x[43] + r[43] <= 0
 mccormick2[44]: - x[44] + r[44] <= 0
 mccormick2[45]: - x[45] + r[45] <= 0
 mccormick2[46]: - x[46] + r[46] <= 0
 mccormick2[47]: - x[47] + r[47] <= 0
 mccormick2[48]: - x[48] + r[48] <= 0
 mccormick2[49]: - x[49] + r[49] <= 0
 mccormick2[50]: - x[50] + r[50] <= 0
 mccormick2[51]: - x[51] + r[51] <= 0
 mccormick2[52]: - x[52] + r[52] <= 0
 mccormick2[53]: - x[53] + r[53] <= 0
 mccormick2[54]: - x[54] + r[54] <= 0
 mccormick2[55]: - x[55] + r[55] <= 0
 mccormick2[56]: - x[56] + r[56] <= 0
 mccormick2[57]: - x[57] + r[57] <= 0
 mccormick2[58]: - x[58] + r[58] <= 0
 mccormick2[59]: - x[59] + r[59] <= 0
 mccormick2[60]: - x[60] + r[60] <= 0
 mccormick2[61]: - x[61] + r[61] <= 0
 mccormick2[62]: - x[62] + r[62] <= 0
 mccormick2[63]: - x[63] + r[63] <= 0
 mccormick2[64]: - x[64] + r[64] <= 0
 mccormick2[65]: - x[65] + r[65] <= 0
 mccormick2[66]: - x[66] + r[66] <= 0
 mccormick2[67]: - x[67] + r[67] <= 0
 mccormick2[68]: - x[68] + r[68] <= 0
 mccormick2[69]: - x[69] + r[69] <= 0
 mccormick2[70]: - x[70] + r[70] <= 0
 mccormick2[71]: - x[71] + r[71] <= 0
 mccormick2[72]: - x[72] + r[72] <= 0
 mccormick2[73]: - x[73] + r[73] <= 0
 mccormick2[74]: - x[74] + r[74] <= 0
 mccormick2[75]: - x[75] + r[75] <= 0
 mccormick2[76]: - x[76] + r[76] <= 0
 mccormick2[77]: - x[77] + r[77] <= 0
 mccormick2[78]: - x[78] + r[78] <= 0
 mccormick2[79]: - x[79] + r[79] <= 0
 mccormick3[0]: x[0] + u[0] - r[0] <= 1
 mccormick3[1]: x[1] + u[1] - r[1] <= 1
 mccormick3[2]: x[2] + u[2] - r[2] <= 1
 mccormick3[3]: x[3] + u[3] - r[3] <= 1
 mccormick3[4]: x[4] + u[4] - r[4] <= 1
 mccormick3[5]: x[5] + u[5] - r[5] <= 1
 mccormick3[6]: x[6] + u[6] - r[6] <= 1
 mccormick3[7]: x[7] + u[7] - r[7] <= 1
 mccormick3[8]: x[8] + u[8] - r[8] <= 1
 mccormick3[9]: x[9] + u[9] - r[9] <= 1
 mccormick3[10]: x[10] + u[10] - r[10] <= 1
 mccormick3[11]: x[11] + u[11] - r[11] <= 1
 mccormick3[12]: x[12] + u[12] - r[12] <= 1
 mccormick3[13]: x[13] + u[13] - r[13] <= 1
 mccormick3[14]: x[14] + u[14] - r[14] <= 1
 mccormick3[15]: x[15] + u[15] - r[15] <= 1
 mccormick3[16]: x[16] + u[16] - r[16] <= 1
 mccormick3[17]: x[17] + u[17] - r[17] <= 1
 mccormick3[18]: x[18] + u[18] - r[18] <= 1
 mccormick3[19]: x[19] + u[19] - r[19] <= 1
 mccormick3[20]: x[20] + u[20] - r[20] <= 1
 mccormick3[21]: x[21] + u[21] - r[21] <= 1
 mccormick3[22]: x[22] + u[22] - r[22] <= 1
 mccormick3[23]: x[23] + u[23] - r[23] <= 1
 mccormick3[24]: x[24] + u[24] - r[24] <= 1
 mccormick3[25]: x[25] + u[25] - r[25] <= 1
 mccormick3[26]: x[26] + u[26] - r[26] <= 1
 mccormick3[27]: x[27] + u[27] - r[27] <= 1
 mccormick3[28]: x[28] + u[28] - r[28] <= 1
 mccormick3[29]: x[29] + u[29] - r[29] <= 1
 mccormick3[30]: x[30] + u[30] - r[30] <= 1
 mccormick3[31]: x[31] + u[31] - r[31] <= 1
 mccormick3[32]: x[32] + u[32] - r[32] <= 1
 mccormick3[33]: x[33] + u[33] - r[33] <= 1
 mccormick3[34]: x[34] + u[34] - r[34] <= 1
 mccormick3[35]: x[35] + u[35] - r[35] <= 1
 mccormick3[36]: x[36] + u[36] - r[36] <= 1
 mccormick3[37]: x[37] + u[37] - r[37] <= 1
 mccormick3[38]: x[38] + u[38] - r[38] <= 1
 mccormick3[39]: x[39] + u[39] - r[39] <= 1
 mccormick3[40]: x[40] + u[40] - r[40] <= 1
 mccormick3[41]: x[41] + u[41] - r[41] <= 1
 mccormick3[42]: x[42] + u[42] - r[42] <= 1
 mccormick3[43]: x[43] + u[43] - r[43] <= 1
 mccormick3[44]: x[44] + u[44] - r[44] <= 1
 mccormick3[45]: x[45] + u[45] - r[45] <= 1
 mccormick3[46]: x[46] + u[46] - r[46] <= 1
 mccormick3[47]: x[47] + u[47] - r[47] <= 1
 mccormick3[48]: x[48] + u[48] - r[48] <= 1
 mccormick3[49]: x[49] + u[49] - r[49] <= 1
 mccormick3[50]: x[50] + u[50] - r[50] <= 1
 mccormick3[51]: x[51] + u[51] - r[51] <= 1
 mccormick3[52]: x[52] + u[52] - r[52] <= 1
 mccormick3[53]: x[53] + u[53] - r[53] <= 1
 mccormick3[54]: x[54] + u[54] - r[54] <= 1
 mccormick3[55]: x[55] + u[55] - r[55] <= 1
 mccormick3[56]: x[56] + u[56] - r[56] <= 1
 mccormick3[57]: x[57] + u[57] - r[57] <= 1
 mccormick3[58]: x[58] + u[58] - r[58] <= 1
 mccormick3[59]: x[59] + u[59] - r[59] <= 1
 mccormick3[60]: x[60] + u[60] - r[60] <= 1
 mccormick3[61]: x[61] + u[61] - r[61] <= 1
 mccormick3[62]: x[62] + u[62] - r[62] <= 1
 mccormick3[63]: x[63] + u[63] - r[63] <= 1
 mccormick3[64]: x[64] + u[64] - r[64] <= 1
 mccormick3[65]: x[65] + u[65] - r[65] <= 1
 mccormick3[66]: x[66] + u[66] - r[66] <= 1
 mccormick3[67]: x[67] + u[67] - r[67] <= 1
 mccormick3[68]: x[68] + u[68] - r[68] <= 1
 mccormick3[69]: x[69] + u[69] - r[69] <= 1
 mccormick3[70]: x[70] + u[70] - r[70] <= 1
 mccormick3[71]: x[71] + u[71] - r[71] <= 1
 mccormick3[72]: x[72] + u[72] - r[72] <= 1
 mccormick3[73]: x[73] + u[73] - r[73] <= 1
 mccormick3[74]: x[74] + u[74] - r[74] <= 1
 mccormick3[75]: x[75] + u[75] - r[75] <= 1
 mccormick3[76]: x[76] + u[76] - r[76] <= 1
 mccormick3[77]: x[77] + u[77] - r[77] <= 1
 mccormick3[78]: x[78] + u[78] - r[78] <= 1
 mccormick3[79]: x[79] + u[79] - r[79] <= 1
Bounds
Binaries
 x[0] x[1] x[2] x[3] x[4] x[5] x[6] x[7] x[8] x[9] x[10] x[11] x[12] x[13]
 x[14] x[15] x[16] x[17] x[18] x[19] x[20] x[21] x[22] x[23] x[24] x[25]
 x[26] x[27] x[28] x[29] x[30] x[31] x[32] x[33] x[34] x[35] x[36] x[37]
 x[38] x[39] x[40] x[41] x[42] x[43] x[44] x[45] x[46] x[47] x[48] x[49]
 x[50] x[51] x[52] x[53] x[54] x[55] x[56] x[57] x[58] x[59] x[60] x[61]
 x[62] x[63] x[64] x[65] x[66] x[67] x[68] x[69] x[70] x[71] x[72] x[73]
 x[74] x[75] x[76] x[77] x[78] x[79] u[0] u[1] u[2] u[3] u[4] u[5] u[6]
 u[7] u[8] u[9] u[10] u[11] u[12] u[13] u[14] u[15] u[16] u[17] u[18] u[19]
 u[20] u[21] u[22] u[23] u[24] u[25] u[26] u[27] u[28] u[29] u[30] u[31]
 u[32] u[33] u[34] u[35] u[36] u[37] u[38] u[39] u[40] u[41] u[42] u[43]
 u[44] u[45] u[46] u[47] u[48] u[49] u[50] u[51] u[52] u[53] u[54] u[55]
 u[56] u[57] u[58] u[59] u[60] u[61] u[62] u[63] u[64] u[65] u[66] u[67]
 u[68] u[69] u[70] u[71] u[72] u[73] u[74] u[75] u[76] u[77] u[78] u[79]
 r[0] r[1] r[2] r[3] r[4] r[5] r[6] r[7] r[8] r[9] r[10] r[11] r[12] r[13]
 r[14] r[15] r[16] r[17] r[18] r[19] r[20] r[21] r[22] r[23] r[24] r[25]
 r[26] r[27] r[28] r[29] r[30] r[31] r[32] r[33] r[34] r[35] r[36] r[37]
 r[38] r[39] r[40] r[41] r[42] r[43] r[44] r[45] r[46] r[47] r[48] r[49]
 r[50] r[51] r[52] r[53] r[54] r[55] r[56] r[57] r[58] r[59] r[60] r[61]
 r[62] r[63] r[64] r[65] r[66] r[67] r[68] r[69] r[70] r[71] r[72] r[73]
 r[74] r[75] r[76] r[77] r[78] r[79]
End
